p cnf 150 847
1 2 3 4 5 6 0
7 8 9 10 11 12 0
13 14 15 16 17 18 0
19 20 21 22 23 24 0
25 26 27 28 29 30 0
31 32 33 34 35 36 0
37 38 39 40 41 42 0
43 44 45 46 47 48 0
49 50 51 52 53 54 0
55 56 57 58 59 60 0
61 62 63 64 65 66 0
67 68 69 70 71 72 0
73 74 75 76 77 78 0
79 80 81 82 83 84 0
85 86 87 88 89 90 0
91 92 93 94 95 96 0
97 98 99 100 101 102 0
103 104 105 106 107 108 0
109 110 111 112 113 114 0
115 116 117 118 119 120 0
121 122 123 124 125 126 0
127 128 129 130 131 132 0
133 134 135 136 137 138 0
139 140 141 142 143 144 0
145 146 147 148 149 150 0
-1 -13 0
-2 -14 0
-3 -15 0
-4 -16 0
-5 -17 0
-6 -18 0
-1 -43 0
-2 -44 0
-3 -45 0
-4 -46 0
-5 -47 0
-6 -48 0
-1 -67 0
-2 -68 0
-3 -69 0
-4 -70 0
-5 -71 0
-6 -72 0
-1 -73 0
-2 -74 0
-3 -75 0
-4 -76 0
-5 -77 0
-6 -78 0
-1 -79 0
-2 -80 0
-3 -81 0
-4 -82 0
-5 -83 0
-6 -84 0
-1 -85 0
-2 -86 0
-3 -87 0
-4 -88 0
-5 -89 0
-6 -90 0
-1 -109 0
-2 -110 0
-3 -111 0
-4 -112 0
-5 -113 0
-6 -114 0
-1 -115 0
-2 -116 0
-3 -117 0
-4 -118 0
-5 -119 0
-6 -120 0
-1 -121 0
-2 -122 0
-3 -123 0
-4 -124 0
-5 -125 0
-6 -126 0
-1 -133 0
-2 -134 0
-3 -135 0
-4 -136 0
-5 -137 0
-6 -138 0
-7 -25 0
-8 -26 0
-9 -27 0
-10 -28 0
-11 -29 0
-12 -30 0
-7 -31 0
-8 -32 0
-9 -33 0
-10 -34 0
-11 -35 0
-12 -36 0
-7 -37 0
-8 -38 0
-9 -39 0
-10 -40 0
-11 -41 0
-12 -42 0
-7 -55 0
-8 -56 0
-9 -57 0
-10 -58 0
-11 -59 0
-12 -60 0
-7 -61 0
-8 -62 0
-9 -63 0
-10 -64 0
-11 -65 0
-12 -66 0
-7 -67 0
-8 -68 0
-9 -69 0
-10 -70 0
-11 -71 0
-12 -72 0
-7 -79 0
-8 -80 0
-9 -81 0
-10 -82 0
-11 -83 0
-12 -84 0
-7 -91 0
-8 -92 0
-9 -93 0
-10 -94 0
-11 -95 0
-12 -96 0
-7 -97 0
-8 -98 0
-9 -99 0
-10 -100 0
-11 -101 0
-12 -102 0
-7 -109 0
-8 -110 0
-9 -111 0
-10 -112 0
-11 -113 0
-12 -114 0
-7 -121 0
-8 -122 0
-9 -123 0
-10 -124 0
-11 -125 0
-12 -126 0
-7 -127 0
-8 -128 0
-9 -129 0
-10 -130 0
-11 -131 0
-12 -132 0
-7 -133 0
-8 -134 0
-9 -135 0
-10 -136 0
-11 -137 0
-12 -138 0
-7 -139 0
-8 -140 0
-9 -141 0
-10 -142 0
-11 -143 0
-12 -144 0
-7 -145 0
-8 -146 0
-9 -147 0
-10 -148 0
-11 -149 0
-12 -150 0
-13 -25 0
-14 -26 0
-15 -27 0
-16 -28 0
-17 -29 0
-18 -30 0
-13 -37 0
-14 -38 0
-15 -39 0
-16 -40 0
-17 -41 0
-18 -42 0
-13 -43 0
-14 -44 0
-15 -45 0
-16 -46 0
-17 -47 0
-18 -48 0
-13 -49 0
-14 -50 0
-15 -51 0
-16 -52 0
-17 -53 0
-18 -54 0
-13 -61 0
-14 -62 0
-15 -63 0
-16 -64 0
-17 -65 0
-18 -66 0
-13 -91 0
-14 -92 0
-15 -93 0
-16 -94 0
-17 -95 0
-18 -96 0
-19 -37 0
-20 -38 0
-21 -39 0
-22 -40 0
-23 -41 0
-24 -42 0
-19 -43 0
-20 -44 0
-21 -45 0
-22 -46 0
-23 -47 0
-24 -48 0
-19 -55 0
-20 -56 0
-21 -57 0
-22 -58 0
-23 -59 0
-24 -60 0
-19 -67 0
-20 -68 0
-21 -69 0
-22 -70 0
-23 -71 0
-24 -72 0
-19 -79 0
-20 -80 0
-21 -81 0
-22 -82 0
-23 -83 0
-24 -84 0
-19 -115 0
-20 -116 0
-21 -117 0
-22 -118 0
-23 -119 0
-24 -120 0
-19 -139 0
-20 -140 0
-21 -141 0
-22 -142 0
-23 -143 0
-24 -144 0
-19 -145 0
-20 -146 0
-21 -147 0
-22 -148 0
-23 -149 0
-24 -150 0
-25 -31 0
-26 -32 0
-27 -33 0
-28 -34 0
-29 -35 0
-30 -36 0
-25 -55 0
-26 -56 0
-27 -57 0
-28 -58 0
-29 -59 0
-30 -60 0
-25 -67 0
-26 -68 0
-27 -69 0
-28 -70 0
-29 -71 0
-30 -72 0
-25 -79 0
-26 -80 0
-27 -81 0
-28 -82 0
-29 -83 0
-30 -84 0
-25 -97 0
-26 -98 0
-27 -99 0
-28 -100 0
-29 -101 0
-30 -102 0
-25 -121 0
-26 -122 0
-27 -123 0
-28 -124 0
-29 -125 0
-30 -126 0
-25 -127 0
-26 -128 0
-27 -129 0
-28 -130 0
-29 -131 0
-30 -132 0
-25 -133 0
-26 -134 0
-27 -135 0
-28 -136 0
-29 -137 0
-30 -138 0
-25 -139 0
-26 -140 0
-27 -141 0
-28 -142 0
-29 -143 0
-30 -144 0
-31 -61 0
-32 -62 0
-33 -63 0
-34 -64 0
-35 -65 0
-36 -66 0
-31 -67 0
-32 -68 0
-33 -69 0
-34 -70 0
-35 -71 0
-36 -72 0
-31 -121 0
-32 -122 0
-33 -123 0
-34 -124 0
-35 -125 0
-36 -126 0
-31 -127 0
-32 -128 0
-33 -129 0
-34 -130 0
-35 -131 0
-36 -132 0
-31 -133 0
-32 -134 0
-33 -135 0
-34 -136 0
-35 -137 0
-36 -138 0
-31 -139 0
-32 -140 0
-33 -141 0
-34 -142 0
-35 -143 0
-36 -144 0
-37 -43 0
-38 -44 0
-39 -45 0
-40 -46 0
-41 -47 0
-42 -48 0
-37 -49 0
-38 -50 0
-39 -51 0
-40 -52 0
-41 -53 0
-42 -54 0
-37 -55 0
-38 -56 0
-39 -57 0
-40 -58 0
-41 -59 0
-42 -60 0
-37 -61 0
-38 -62 0
-39 -63 0
-40 -64 0
-41 -65 0
-42 -66 0
-37 -85 0
-38 -86 0
-39 -87 0
-40 -88 0
-41 -89 0
-42 -90 0
-37 -91 0
-38 -92 0
-39 -93 0
-40 -94 0
-41 -95 0
-42 -96 0
-37 -115 0
-38 -116 0
-39 -117 0
-40 -118 0
-41 -119 0
-42 -120 0
-37 -133 0
-38 -134 0
-39 -135 0
-40 -136 0
-41 -137 0
-42 -138 0
-37 -139 0
-38 -140 0
-39 -141 0
-40 -142 0
-41 -143 0
-42 -144 0
-37 -145 0
-38 -146 0
-39 -147 0
-40 -148 0
-41 -149 0
-42 -150 0
-43 -55 0
-44 -56 0
-45 -57 0
-46 -58 0
-47 -59 0
-48 -60 0
-43 -73 0
-44 -74 0
-45 -75 0
-46 -76 0
-47 -77 0
-48 -78 0
-43 -85 0
-44 -86 0
-45 -87 0
-46 -88 0
-47 -89 0
-48 -90 0
-43 -91 0
-44 -92 0
-45 -93 0
-46 -94 0
-47 -95 0
-48 -96 0
-43 -97 0
-44 -98 0
-45 -99 0
-46 -100 0
-47 -101 0
-48 -102 0
-43 -109 0
-44 -110 0
-45 -111 0
-46 -112 0
-47 -113 0
-48 -114 0
-43 -133 0
-44 -134 0
-45 -135 0
-46 -136 0
-47 -137 0
-48 -138 0
-43 -139 0
-44 -140 0
-45 -141 0
-46 -142 0
-47 -143 0
-48 -144 0
-49 -61 0
-50 -62 0
-51 -63 0
-52 -64 0
-53 -65 0
-54 -66 0
-49 -73 0
-50 -74 0
-51 -75 0
-52 -76 0
-53 -77 0
-54 -78 0
-49 -85 0
-50 -86 0
-51 -87 0
-52 -88 0
-53 -89 0
-54 -90 0
-49 -97 0
-50 -98 0
-51 -99 0
-52 -100 0
-53 -101 0
-54 -102 0
-49 -109 0
-50 -110 0
-51 -111 0
-52 -112 0
-53 -113 0
-54 -114 0
-49 -115 0
-50 -116 0
-51 -117 0
-52 -118 0
-53 -119 0
-54 -120 0
-49 -133 0
-50 -134 0
-51 -135 0
-52 -136 0
-53 -137 0
-54 -138 0
-49 -145 0
-50 -146 0
-51 -147 0
-52 -148 0
-53 -149 0
-54 -150 0
-55 -97 0
-56 -98 0
-57 -99 0
-58 -100 0
-59 -101 0
-60 -102 0
-55 -109 0
-56 -110 0
-57 -111 0
-58 -112 0
-59 -113 0
-60 -114 0
-55 -121 0
-56 -122 0
-57 -123 0
-58 -124 0
-59 -125 0
-60 -126 0
-55 -127 0
-56 -128 0
-57 -129 0
-58 -130 0
-59 -131 0
-60 -132 0
-55 -133 0
-56 -134 0
-57 -135 0
-58 -136 0
-59 -137 0
-60 -138 0
-55 -139 0
-56 -140 0
-57 -141 0
-58 -142 0
-59 -143 0
-60 -144 0
-61 -79 0
-62 -80 0
-63 -81 0
-64 -82 0
-65 -83 0
-66 -84 0
-61 -85 0
-62 -86 0
-63 -87 0
-64 -88 0
-65 -89 0
-66 -90 0
-61 -103 0
-62 -104 0
-63 -105 0
-64 -106 0
-65 -107 0
-66 -108 0
-67 -79 0
-68 -80 0
-69 -81 0
-70 -82 0
-71 -83 0
-72 -84 0
-67 -85 0
-68 -86 0
-69 -87 0
-70 -88 0
-71 -89 0
-72 -90 0
-67 -133 0
-68 -134 0
-69 -135 0
-70 -136 0
-71 -137 0
-72 -138 0
-67 -145 0
-68 -146 0
-69 -147 0
-70 -148 0
-71 -149 0
-72 -150 0
-73 -79 0
-74 -80 0
-75 -81 0
-76 -82 0
-77 -83 0
-78 -84 0
-73 -85 0
-74 -86 0
-75 -87 0
-76 -88 0
-77 -89 0
-78 -90 0
-73 -91 0
-74 -92 0
-75 -93 0
-76 -94 0
-77 -95 0
-78 -96 0
-73 -97 0
-74 -98 0
-75 -99 0
-76 -100 0
-77 -101 0
-78 -102 0
-73 -103 0
-74 -104 0
-75 -105 0
-76 -106 0
-77 -107 0
-78 -108 0
-73 -109 0
-74 -110 0
-75 -111 0
-76 -112 0
-77 -113 0
-78 -114 0
-73 -121 0
-74 -122 0
-75 -123 0
-76 -124 0
-77 -125 0
-78 -126 0
-73 -139 0
-74 -140 0
-75 -141 0
-76 -142 0
-77 -143 0
-78 -144 0
-73 -145 0
-74 -146 0
-75 -147 0
-76 -148 0
-77 -149 0
-78 -150 0
-79 -91 0
-80 -92 0
-81 -93 0
-82 -94 0
-83 -95 0
-84 -96 0
-79 -103 0
-80 -104 0
-81 -105 0
-82 -106 0
-83 -107 0
-84 -108 0
-79 -109 0
-80 -110 0
-81 -111 0
-82 -112 0
-83 -113 0
-84 -114 0
-79 -139 0
-80 -140 0
-81 -141 0
-82 -142 0
-83 -143 0
-84 -144 0
-85 -97 0
-86 -98 0
-87 -99 0
-88 -100 0
-89 -101 0
-90 -102 0
-85 -109 0
-86 -110 0
-87 -111 0
-88 -112 0
-89 -113 0
-90 -114 0
-85 -115 0
-86 -116 0
-87 -117 0
-88 -118 0
-89 -119 0
-90 -120 0
-85 -121 0
-86 -122 0
-87 -123 0
-88 -124 0
-89 -125 0
-90 -126 0
-85 -127 0
-86 -128 0
-87 -129 0
-88 -130 0
-89 -131 0
-90 -132 0
-85 -133 0
-86 -134 0
-87 -135 0
-88 -136 0
-89 -137 0
-90 -138 0
-91 -97 0
-92 -98 0
-93 -99 0
-94 -100 0
-95 -101 0
-96 -102 0
-91 -121 0
-92 -122 0
-93 -123 0
-94 -124 0
-95 -125 0
-96 -126 0
-91 -127 0
-92 -128 0
-93 -129 0
-94 -130 0
-95 -131 0
-96 -132 0
-91 -133 0
-92 -134 0
-93 -135 0
-94 -136 0
-95 -137 0
-96 -138 0
-91 -145 0
-92 -146 0
-93 -147 0
-94 -148 0
-95 -149 0
-96 -150 0
-97 -127 0
-98 -128 0
-99 -129 0
-100 -130 0
-101 -131 0
-102 -132 0
-97 -139 0
-98 -140 0
-99 -141 0
-100 -142 0
-101 -143 0
-102 -144 0
-103 -115 0
-104 -116 0
-105 -117 0
-106 -118 0
-107 -119 0
-108 -120 0
-103 -127 0
-104 -128 0
-105 -129 0
-106 -130 0
-107 -131 0
-108 -132 0
-103 -133 0
-104 -134 0
-105 -135 0
-106 -136 0
-107 -137 0
-108 -138 0
-103 -139 0
-104 -140 0
-105 -141 0
-106 -142 0
-107 -143 0
-108 -144 0
-109 -121 0
-110 -122 0
-111 -123 0
-112 -124 0
-113 -125 0
-114 -126 0
-109 -127 0
-110 -128 0
-111 -129 0
-112 -130 0
-113 -131 0
-114 -132 0
-109 -145 0
-110 -146 0
-111 -147 0
-112 -148 0
-113 -149 0
-114 -150 0
-115 -121 0
-116 -122 0
-117 -123 0
-118 -124 0
-119 -125 0
-120 -126 0
-115 -127 0
-116 -128 0
-117 -129 0
-118 -130 0
-119 -131 0
-120 -132 0
-115 -133 0
-116 -134 0
-117 -135 0
-118 -136 0
-119 -137 0
-120 -138 0
-115 -139 0
-116 -140 0
-117 -141 0
-118 -142 0
-119 -143 0
-120 -144 0
-121 -127 0
-122 -128 0
-123 -129 0
-124 -130 0
-125 -131 0
-126 -132 0
-121 -133 0
-122 -134 0
-123 -135 0
-124 -136 0
-125 -137 0
-126 -138 0
-121 -145 0
-122 -146 0
-123 -147 0
-124 -148 0
-125 -149 0
-126 -150 0
-127 -139 0
-128 -140 0
-129 -141 0
-130 -142 0
-131 -143 0
-132 -144 0
-127 -145 0
-128 -146 0
-129 -147 0
-130 -148 0
-131 -149 0
-132 -150 0
-133 -145 0
-134 -146 0
-135 -147 0
-136 -148 0
-137 -149 0
-138 -150 0
-139 -145 0
-140 -146 0
-141 -147 0
-142 -148 0
-143 -149 0
-144 -150 0
